104531
26,36,66,20,67,76,70,62,14,29,10,1,64,73,13,37,18,48,5,19,24,31,65,50,52,41,39,63,4,53,59,68,44,22,82,75,11,16,38,2,30,35,28,8,83,79,6,61,15,78,69,25,42,55,23,12,3,43,57,34,49,47,60,81,72,51,56,17,7,27,33,40,32,74,58,77,9,21,71,54,46,45,80
